54
120
96	2
95	4
94	1
93	1
92	1
91	2
89	1
86	2
85	1
84	4
83	1
81	4
80	4
79	1
78	2
75	3
74	2
73	4
72	1
70	1
69	1
68	2
65	3
62	1
61	1
60	2
59	4
57	3
56	2
55	1
54	2
53	1
52	1
50	2
48	1
47	1
46	3
45	2
44	1
43	1
42	1
41	1
39	1
38	3
37	1
36	1
35	2
34	1
33	3
32	2
30	1
28	4
26	1
24	1
